EVRP-TW-SPD dataset generation/evrptwspd_instances/small_instances/Cplex15er/r202C15.txt
StringID	Type	x	y	Delivery	Pickup	ReadyTime	DueDate	ServiceTime
D0	d	35.0	35.0	0.0	0.0	0.0	1000.0	0.0
S0	f	35.0	35.0	0.0	0.0	0.0	1000.0	0.0
S5	f	28.0	62.0	0.0	0.0	0.0	1000.0	0.0
S9	f	15.0	42.0	0.0	0.0	0.0	1000.0	0.0
S13	f	21.0	22.0	0.0	0.0	0.0	1000.0	0.0
S15	f	34.0	16.0	0.0	0.0	0.0	1000.0	0.0
S19	f	64.0	19.0	0.0	0.0	0.0	1000.0	0.0
C79	c	57.0	48.0	19.36842105263158	3.6315789473684212	0.0	964.0	10.0
C44	c	11.0	14.0	14.142857142857142	3.8571428571428577	42.0	178.0	10.0
C23	c	55.0	5.0	2.6363636363636362	26.363636363636363	53.0	233.0	10.0
C38	c	5.0	5.0	16.0	0.0	0.0	947.0	10.0
C25	c	65.0	20.0	1.8461538461538463	4.153846153846153	418.0	532.0	10.0
C41	c	42.0	7.0	0.8333333333333333	4.166666666666667	782.0	912.0	10.0
C70	c	37.0	56.0	3.3035714285714284	1.6964285714285716	0.0	968.0	10.0
C85	c	16.0	22.0	29.81818181818182	11.18181818181818	552.0	744.0	10.0
C87	c	28.0	18.0	16.714285714285715	9.285714285714285	530.0	568.0	10.0
C46	c	2.0	48.0	0.041666666666666664	0.9583333333333334	46.0	182.0	10.0
C61	c	12.0	24.0	6.5	6.5	329.0	551.0	10.0
C48	c	13.0	52.0	9.0	27.0	418.0	558.0	10.0
C42	c	24.0	12.0	2.5	2.5	0.0	964.0	10.0
C72	c	47.0	16.0	8.51063829787234	16.48936170212766	104.0	252.0	10.0
C11	c	20.0	65.0	3.6923076923076925	8.307692307692307	0.0	956.0	10.0

Q Vehicle fuel tank capacity /60.63/
C Vehicle load capacity /1000.0/
r fuel consumption rate /1.0/
g inverse refueling rate /0.49/
v average Velocity /1.0/
